networks/zoo_30_84/zoo_30_84-lower.sol
<?xml version = "1.0" encoding="UTF-8" standalone="yes"?>
<CPLEXSolution version="1.2">
 <header
   problemName="networks/zoo_30_84/zoo_30_84-lower.lp"
   solutionName="incumbent"
   solutionIndex="-1"
   objectiveValue="12"
   solutionTypeValue="3"
   solutionTypeString="primal"
   solutionStatusValue="101"
   solutionStatusString="integer optimal solution"
   solutionMethodString="mip"
   primalFeasible="1"
   dualFeasible="1"
   MIPNodes="0"
   MIPIterations="0"
   writeLevel="3"/>
 <quality
   epInt="1.0000000000000001e-05"
   epRHS="9.9999999999999995e-07"
   maxIntInfeas="0"
   maxPrimalInfeas="0"
   maxX="1"
   maxSlack="1"/>
 <variables>
  <variable name="Y(1,1)" index="0" value="1"/>
  <variable name="Y(2,4)" index="30" value="1"/>
  <variable name="Y(3,10)" index="63" value="1"/>
  <variable name="Y(5,2)" index="109" value="1"/>
  <variable name="Y(6,3)" index="137" value="1"/>
  <variable name="Y(7,5)" index="166" value="1"/>
  <variable name="Y(8,6)" index="194" value="1"/>
  <variable name="Y(9,8)" index="223" value="1"/>
  <variable name="Y(11,11)" index="280" value="1"/>
  <variable name="Y(12,13)" index="309" value="1"/>
  <variable name="Y(13,14)" index="337" value="1"/>
  <variable name="Y(14,15)" index="365" value="1"/>
  <variable name="X(1,4,16)" index="2283" value="1"/>
  <variable name="X(1,5,5)" index="2356" value="1"/>
  <variable name="X(1,16,1)" index="2436" value="1"/>
  <variable name="X(2,3,2)" index="2521" value="1"/>
  <variable name="X(2,5,1)" index="2604" value="1"/>
  <variable name="X(2,17,5)" index="2692" value="1"/>
  <variable name="X(3,2,23)" index="2794" value="1"/>
  <variable name="X(3,6,2)" index="2857" value="1"/>
  <variable name="X(3,18,6)" index="2945" value="1"/>
  <variable name="X(4,1,4)" index="3027" value="1"/>
  <variable name="X(4,6,6)" index="3113" value="1"/>
  <variable name="X(4,19,2)" index="3193" value="1"/>
  <variable name="X(5,1,1)" index="3276" value="1"/>
  <variable name="X(5,2,5)" index="3364" value="1"/>
  <variable name="X(5,20,7)" index="3450" value="1"/>
  <variable name="X(6,3,6)" index="3533" value="1"/>
  <variable name="X(6,4,2)" index="3613" value="1"/>
  <variable name="X(6,7,3)" index="3698" value="1"/>
  <variable name="X(6,15,11)" index="3790" value="1"/>
  <variable name="X(6,21,8)" index="3871" value="1"/>
  <variable name="X(7,6,33)" index="3980" value="1"/>
  <variable name="X(7,9,3)" index="4034" value="1"/>
  <variable name="X(8,9,56)" index="4171" value="1"/>
  <variable name="X(8,10,3)" index="4202" value="1"/>
  <variable name="X(8,23,9)" index="4292" value="1"/>
  <variable name="X(9,7,45)" index="4412" value="1"/>
  <variable name="X(9,8,3)" index="4454" value="1"/>
  <variable name="X(10,8,56)" index="4591" value="1"/>
  <variable name="X(10,11,41)" index="4660" value="1"/>
  <variable name="X(10,25,3)" index="4706" value="1"/>
  <variable name="X(11,10,56)" index="4843" value="1"/>
  <variable name="X(11,12,64)" index="4935" value="1"/>
  <variable name="X(11,26,11)" index="4966" value="1"/>
  <variable name="X(12,11,11)" index="5050" value="1"/>
  <variable name="X(12,13,64)" index="5187" value="1"/>
  <variable name="X(13,12,11)" index="5218" value="1"/>
  <variable name="X(13,14,65)" index="5356" value="1"/>
  <variable name="X(13,28,12)" index="5387" value="1"/>
  <variable name="X(14,13,11)" index="5470" value="1"/>
  <variable name="X(14,15,66)" index="5609" value="1"/>
  <variable name="X(14,29,13)" index="5640" value="1"/>
  <variable name="X(15,6,67)" index="5778" value="1"/>
  <variable name="X(15,14,11)" index="5806" value="1"/>
  <variable name="X(15,30,14)" index="5893" value="1"/>
 </variables>
</CPLEXSolution>
